(set-logic QF_S)
(declare-fun T_13 () Bool)
(declare-fun T_14 () Bool)
(declare-fun T_SELECT_2 () Bool)
(declare-fun PCTEMP_LHS_2 () Int)
(declare-fun T0_26 () String)
(declare-fun T1_26 () String)
(declare-fun T_11 () String)
(assert (= T_11 (str.++ T0_26 T1_26)))
(assert (not (str.in.re T1_26 (str.to.re "utm_source="))))
(assert T_14)
(assert (= T_14 (not T_13)))
(assert (= T_13 (< (- 1) PCTEMP_LHS_2)))
(assert (= PCTEMP_LHS_2 (- 1)))
(assert (= T_SELECT_2 (not (= PCTEMP_LHS_2 (- 1)))))
(assert (= 0 (str.len T0_26))) ; len 0
(assert (not T_SELECT_2))
(check-sat)
